language ESSENCE' 1.0
letting nrows be 5
letting ncols be 6

letting nrobots be 2
letting robot_pos be [[1, 1], 
                     [4, 4]]

letting ntasks be 6
letting task_obj be [1, 3, 2, 1, 2, 3]
letting task_dest be [[5, 1], 
                      [1, 5],
                      [3, 3],
                      [2, 3],
                      [4, 2],
                      [1, 2]]

letting time_limit be 15

letting map be [[ 0, 0, 0, 0, 0, 3],
                [ 1, 2, 0, 0, 0, 0],
                [ 0, 0, 0, 0, 1, 0],
                [ 0, 3, 0, 2, 0, 0],
                [ 0, 0, 0, 0, 0, 0]]
